QPLIB_2480
LCQ
minimize
399 # number of variables
400 # number of constraints
-0.01570796327 # default value for linear coefficients in objective
199 # number of non-default linear coefficients in objective
201 0.0
202 0.0
203 0.0
204 0.0
205 0.0
206 0.0
207 0.0
208 0.0
209 0.0
210 0.0
211 0.0
212 0.0
213 0.0
214 0.0
215 0.0
216 0.0
217 0.0
218 0.0
219 0.0
220 0.0
221 0.0
222 0.0
223 0.0
224 0.0
225 0.0
226 0.0
227 0.0
228 0.0
229 0.0
230 0.0
231 0.0
232 0.0
233 0.0
234 0.0
235 0.0
236 0.0
237 0.0
238 0.0
239 0.0
240 0.0
241 0.0
242 0.0
243 0.0
244 0.0
245 0.0
246 0.0
247 0.0
248 0.0
249 0.0
250 0.0
251 0.0
252 0.0
253 0.0
254 0.0
255 0.0
256 0.0
257 0.0
258 0.0
259 0.0
260 0.0
261 0.0
262 0.0
263 0.0
264 0.0
265 0.0
266 0.0
267 0.0
268 0.0
269 0.0
270 0.0
271 0.0
272 0.0
273 0.0
274 0.0
275 0.0
276 0.0
277 0.0
278 0.0
279 0.0
280 0.0
281 0.0
282 0.0
283 0.0
284 0.0
285 0.0
286 0.0
287 0.0
288 0.0
289 0.0
290 0.0
291 0.0
292 0.0
293 0.0
294 0.0
295 0.0
296 0.0
297 0.0
298 0.0
299 0.0
300 0.0
301 0.0
302 0.0
303 0.0
304 0.0
305 0.0
306 0.0
307 0.0
308 0.0
309 0.0
310 0.0
311 0.0
312 0.0
313 0.0
314 0.0
315 0.0
316 0.0
317 0.0
318 0.0
319 0.0
320 0.0
321 0.0
322 0.0
323 0.0
324 0.0
325 0.0
326 0.0
327 0.0
328 0.0
329 0.0
330 0.0
331 0.0
332 0.0
333 0.0
334 0.0
335 0.0
336 0.0
337 0.0
338 0.0
339 0.0
340 0.0
341 0.0
342 0.0
343 0.0
344 0.0
345 0.0
346 0.0
347 0.0
348 0.0
349 0.0
350 0.0
351 0.0
352 0.0
353 0.0
354 0.0
355 0.0
356 0.0
357 0.0
358 0.0
359 0.0
360 0.0
361 0.0
362 0.0
363 0.0
364 0.0
365 0.0
366 0.0
367 0.0
368 0.0
369 0.0
370 0.0
371 0.0
372 0.0
373 0.0
374 0.0
375 0.0
376 0.0
377 0.0
378 0.0
379 0.0
380 0.0
381 0.0
382 0.0
383 0.0
384 0.0
385 0.0
386 0.0
387 0.0
388 0.0
389 0.0
390 0.0
391 0.0
392 0.0
393 0.0
394 0.0
395 0.0
396 0.0
397 0.0
398 0.0
399 0.0
0.0 # objective constant
597 # number of quadratic terms in all constraints
200 1 1 -2.0
201 1651076122 193 -2.0
202 1852403556 1 3.999921828
203 1768711012 50 -2.0
203 1768711012 50 3.999921828
203 1768711012 50 -2.0
204 775173731 1 -2.0
204 775173731 1 3.999921828
204 775173731 1 -2.0
205 1663070068 1651076122 -2.0
205 1663070068 1651076122 3.999921828
205 1663070068 1651076122 -2.0
206 1852403556 824206179 -2.0
206 1852403556 824206179 3.999921828
206 1852403556 824206179 -2.0
207 1768711012 12321 -2.0
207 1768711012 12321 3.999921828
207 1768711012 12321 -2.0
208 775173731 1 -2.0
208 775173731 1 3.999921828
208 775173731 1 -2.0
209 1663070068 193 -2.0
209 1663070068 193 3.999921828
209 1663070068 193 -2.0
210 824210800 1 -2.0
210 824210800 1 3.999921828
210 824210800 1 -2.0
211 322318369 50 -2.0
211 322318369 50 3.999921828
211 322318369 50 -2.0
212 32543 1 -2.0
212 32543 1 3.999921828
212 32543 1 -2.0
213 1651076122 1 -2.0
213 1651076122 1 3.999921828
213 1651076122 1 -2.0
214 1852403556 1 -2.0
214 1852403556 1 3.999921828
214 1852403556 1 -2.0
215 1768711012 50 -2.0
215 1768711012 50 3.999921828
215 1768711012 50 -2.0
216 775173731 1 -2.0
216 775173731 1 3.999921828
216 775173731 1 -2.0
217 1663070068 1651076122 -2.0
217 1663070068 1651076122 3.999921828
217 1663070068 1651076122 -2.0
218 1852403556 824210800 -2.0
218 1852403556 824210800 3.999921828
218 1852403556 824210800 -2.0
219 1768711012 322318369 -2.0
219 1768711012 322318369 3.999921828
219 1768711012 322318369 -2.0
220 775173731 32543 -2.0
220 775173731 32543 3.999921828
220 775173731 32543 -2.0
221 1763733364 1 -2.0
221 1763733364 1 3.999921828
221 1763733364 1 -2.0
222 824209265 1 -2.0
222 824209265 1 3.999921828
222 824209265 1 -2.0
223 12321 50 -2.0
223 12321 50 3.999921828
223 12321 50 -2.0
224 1 1 -2.0
224 1 1 3.999921828
224 1 1 -2.0
225 1651076122 1 -2.0
225 1651076122 1 3.999921828
225 1651076122 1 -2.0
226 1852403556 1 -2.0
226 1852403556 1 3.999921828
226 1852403556 1 -2.0
227 1768711012 50 -2.0
227 1768711012 50 3.999921828
227 1768711012 50 -2.0
228 775173731 1 -2.0
228 775173731 1 3.999921828
228 775173731 1 -2.0
229 1763733364 1651076122 -2.0
229 1763733364 1651076122 3.999921828
229 1763733364 1651076122 -2.0
230 1852403556 824209265 -2.0
230 1852403556 824209265 3.999921828
230 1852403556 824209265 -2.0
231 1768711012 12321 -2.0
231 1768711012 12321 3.999921828
231 1768711012 12321 -2.0
232 775173731 1 -2.0
232 775173731 1 3.999921828
232 775173731 1 -2.0
233 1864396660 1 -2.0
233 1864396660 1 3.999921828
233 1864396660 1 -2.0
234 824205172 1 -2.0
234 824205172 1 3.999921828
234 824205172 1 -2.0
235 12321 50 -2.0
235 12321 50 3.999921828
235 12321 50 -2.0
236 1 1 -2.0
236 1 1 3.999921828
236 1 1 -2.0
237 1651076122 1 -2.0
237 1651076122 1 3.999921828
237 1651076122 1 -2.0
238 1852403556 1 -2.0
238 1852403556 1 3.999921828
238 1852403556 1 -2.0
239 1768711012 50 -2.0
239 1768711012 50 3.999921828
239 1768711012 50 -2.0
240 775173731 1 -2.0
240 775173731 1 3.999921828
240 775173731 1 -2.0
241 1864396660 1651076122 -2.0
241 1864396660 1651076122 3.999921828
241 1864396660 1651076122 -2.0
242 1852403556 824205172 -2.0
242 1852403556 824205172 3.999921828
242 1852403556 824205172 -2.0
243 1768711012 12321 -2.0
243 1768711012 12321 3.999921828
243 1768711012 12321 -2.0
244 775173731 1 -2.0
244 775173731 1 3.999921828
244 775173731 1 -2.0
245 1931505524 1 -2.0
245 1931505524 1 3.999921828
245 1931505524 1 -2.0
246 824209508 1 -2.0
246 824209508 1 3.999921828
246 824209508 1 -2.0
247 322318625 50 -2.0
247 322318625 50 3.999921828
247 322318625 50 -2.0
248 32543 1 -2.0
248 32543 1 3.999921828
248 32543 1 -2.0
249 1651076122 385 -2.0
249 1651076122 385 3.999921828
249 1651076122 385 -2.0
250 1852403556 1 -2.0
250 1852403556 1 3.999921828
250 1852403556 1 -2.0
251 1768711012 50 -2.0
251 1768711012 50 3.999921828
251 1768711012 50 -2.0
252 775173731 1 -2.0
252 775173731 1 3.999921828
252 775173731 1 -2.0
253 1931505524 1651076121 -2.0
253 1931505524 1651076121 3.999921828
253 1931505524 1651076121 -2.0
254 1684959076 824209508 -2.0
254 1684959076 824209508 3.999921828
254 1684959076 824209508 -2.0
255 1651076196 322318625 -2.0
255 1651076196 322318625 3.999921828
255 1651076196 322318625 -2.0
256 1932407863 32543 -2.0
256 1932407863 32543 3.999921828
256 1932407863 32543 -2.0
257 1868767344 385 -2.0
257 1868767344 385 3.999921828
257 1868767344 385 -2.0
258 540090479 1 -2.0
258 540090479 1 3.999921828
258 540090479 1 -2.0
259 50 50 -2.0
259 50 50 3.999921828
259 50 50 -2.0
260 1 1 -2.0
260 1 1 3.999921828
260 1 1 -2.0
261 1651076121 11543025 -2.0
261 1651076121 11543025 3.999921828
261 1651076121 11543025 -2.0
262 1684959076 1 -2.0
262 1684959076 1 3.999921828
262 1684959076 1 -2.0
263 1651076196 50 -2.0
263 1651076196 50 3.999921828
263 1651076196 50 -2.0
264 1932407863 1 -2.0
264 1932407863 1 3.999921828
264 1932407863 1 -2.0
265 1868767344 1651076121 -2.0
265 1868767344 1651076121 3.999921828
265 1868767344 1651076121 -2.0
266 1684959076 540090479 -2.0
266 1684959076 540090479 3.999921828
266 1684959076 540090479 -2.0
267 1651076196 50 -2.0
267 1651076196 50 3.999921828
267 1651076196 50 -2.0
268 1932407863 1 -2.0
268 1932407863 1 3.999921828
268 1932407863 1 -2.0
269 1868767344 11543025 -2.0
269 1868767344 11543025 3.999921828
269 1868767344 11543025 -2.0
270 540090479 1 -2.0
270 540090479 1 3.999921828
270 540090479 1 -2.0
271 322335282 50 -2.0
271 322335282 50 3.999921828
271 322335282 50 -2.0
272 32543 1 -2.0
272 32543 1 3.999921828
272 32543 1 -2.0
273 1651076121 481 -2.0
273 1651076121 481 3.999921828
273 1651076121 481 -2.0
274 1684959076 1 -2.0
274 1684959076 1 3.999921828
274 1684959076 1 -2.0
275 1651076196 50 -2.0
275 1651076196 50 3.999921828
275 1651076196 50 -2.0
276 1932407863 1 -2.0
276 1932407863 1 3.999921828
276 1932407863 1 -2.0
277 1868767344 1651076121 -2.0
277 1868767344 1651076121 3.999921828
277 1868767344 1651076121 -2.0
278 1681157988 540090479 -2.0
278 1681157988 540090479 3.999921828
278 1681157988 540090479 -2.0
279 1651076196 322335282 -2.0
279 1651076196 322335282 3.999921828
279 1651076196 322335282 -2.0
280 1932407863 32543 -2.0
280 1932407863 32543 3.999921828
280 1932407863 32543 -2.0
281 1868767344 481 -2.0
281 1868767344 481 3.999921828
281 1868767344 481 -2.0
282 540090421 1 -2.0
282 540090421 1 3.999921828
282 540090421 1 -2.0
283 2097 50 -2.0
283 2097 50 3.999921828
283 2097 50 -2.0
284 1 1 -2.0
284 1 1 3.999921828
284 1 1 -2.0
285 1651076121 11561873 -2.0
285 1651076121 11561873 3.999921828
285 1651076121 11561873 -2.0
286 1681157988 1 -2.0
286 1681157988 1 3.999921828
286 1681157988 1 -2.0
287 1651076196 50 -2.0
287 1651076196 50 3.999921828
287 1651076196 50 -2.0
288 1932407863 1 -2.0
288 1932407863 1 3.999921828
288 1932407863 1 -2.0
289 1868767344 1651076121 -2.0
289 1868767344 1651076121 3.999921828
289 1868767344 1651076121 -2.0
290 1684959076 540090421 -2.0
290 1684959076 540090421 3.999921828
290 1684959076 540090421 -2.0
291 1651076196 2097 -2.0
291 1651076196 2097 3.999921828
291 1651076196 2097 -2.0
292 1932407863 1 -2.0
292 1932407863 1 3.999921828
292 1932407863 1 -2.0
293 1868767344 11561873 -2.0
293 1868767344 11561873 3.999921828
293 1868767344 11561873 -2.0
294 540090479 1 -2.0
294 540090479 1 3.999921828
294 540090479 1 -2.0
295 50 50 -2.0
295 50 50 3.999921828
295 50 50 -2.0
296 1 1 -2.0
296 1 1 3.999921828
296 1 1 -2.0
297 1651076121 322325497 -2.0
297 1651076121 322325497 3.999921828
297 1651076121 322325497 -2.0
298 1684959076 32543 -2.0
298 1684959076 32543 3.999921828
298 1684959076 32543 -2.0
299 1651076196 50 -2.0
299 1651076196 50 3.999921828
299 1651076196 50 -2.0
300 1932407863 1 -2.0
300 1932407863 1 3.999921828
300 1932407863 1 -2.0
301 1868767344 1651076121 -2.0
301 1868767344 1651076121 3.999921828
301 1868767344 1651076121 -2.0
302 1684305508 540090479 -2.0
302 1684305508 540090479 3.999921828
302 1684305508 540090479 -2.0
303 1651076196 50 -2.0
303 1651076196 50 3.999921828
303 1651076196 50 -2.0
304 1932407863 1 -2.0
304 1932407863 1 3.999921828
304 1932407863 1 -2.0
305 1986207856 322325497 -2.0
305 1986207856 322325497 3.999921828
305 1986207856 322325497 -2.0
306 540090469 32543 -2.0
306 540090469 32543 3.999921828
306 540090469 32543 -2.0
307 11544625 50 -2.0
307 11544625 50 3.999921828
307 11544625 50 -2.0
308 1 1 -2.0
308 1 1 3.999921828
308 1 1 -2.0
309 1651076121 11561889 -2.0
309 1651076121 11561889 3.999921828
309 1651076121 11561889 -2.0
310 1684305508 1 -2.0
310 1684305508 1 3.999921828
310 1684305508 1 -2.0
311 1651076196 50 -2.0
311 1651076196 50 3.999921828
311 1651076196 50 -2.0
312 1932407863 1 -2.0
312 1932407863 1 3.999921828
312 1932407863 1 -2.0
313 1986207856 1651076122 -2.0
313 1986207856 1651076122 3.999921828
313 1986207856 1651076122 -2.0
314 1852403556 540090469 -2.0
314 1852403556 540090469 3.999921828
314 1852403556 540090469 -2.0
315 1768711012 11544625 -2.0
315 1768711012 11544625 3.999921828
315 1768711012 11544625 -2.0
316 775173731 1 -2.0
316 775173731 1 3.999921828
316 775173731 1 -2.0
317 1663070068 11561889 -2.0
317 1663070068 11561889 3.999921828
317 1663070068 11561889 -2.0
318 824210800 1 -2.0
318 824210800 1 3.999921828
318 824210800 1 -2.0
319 11546657 50 -2.0
319 11546657 50 3.999921828
319 11546657 50 -2.0
320 1 1 -2.0
320 1 1 3.999921828
320 1 1 -2.0
321 1651076122 11564049 -2.0
321 1651076122 11564049 3.999921828
321 1651076122 11564049 -2.0
322 1852403556 1 -2.0
322 1852403556 1 3.999921828
322 1852403556 1 -2.0
323 1768711012 34 -2.0
323 1768711012 34 3.999921828
323 1768711012 34 -2.0
324 775173731 1 -2.0
324 775173731 1 3.999921828
324 775173731 1 -2.0
325 1663070068 308164801 -2.0
325 1663070068 308164801 3.999921828
325 1663070068 308164801 -2.0
326 824210800 32543 -2.0
326 824210800 32543 3.999921828
326 824210800 32543 -2.0
327 11546657 11525025 -2.0
327 11546657 11525025 3.999921828
327 11546657 11525025 -2.0
328 1 1 -2.0
328 1 1 3.999921828
328 1 1 -2.0
329 11564049 1 -2.0
329 11564049 1 3.999921828
329 11564049 1 -2.0
330 1 1 -2.0
330 1 1 3.999921828
330 1 1 -2.0
331 34 34 -2.0
331 34 34 3.999921828
331 34 34 -2.0
332 1 1 -2.0
332 1 1 3.999921828
332 1 1 -2.0
333 -2147483648 308164801 -2.0
333 -2147483648 308164801 3.999921828
333 -2147483648 308164801 -2.0
334 -2147483648 32543 -2.0
334 -2147483648 32543 3.999921828
334 -2147483648 32543 -2.0
335 11525025 1 -2.0
335 11525025 1 3.999921828
335 11525025 1 -2.0
336 1 1 -2.0
336 1 1 3.999921828
336 1 1 -2.0
337 1 1 -2.0
337 1 1 3.999921828
337 1 1 -2.0
338 1 1 -2.0
338 1 1 3.999921828
338 1 1 -2.0
339 1618 34 -2.0
339 1618 34 3.999921828
339 1618 34 -2.0
340 1 1 -2.0
340 1 1 3.999921828
340 1 1 -2.0
341 -2147483648 1 -2.0
341 -2147483648 1 3.999921828
341 -2147483648 1 -2.0
342 -2147483648 1 -2.0
342 -2147483648 1 3.999921828
342 -2147483648 1 -2.0
343 1 1 -2.0
343 1 1 3.999921828
343 1 1 -2.0
344 1 1 -2.0
344 1 1 3.999921828
344 1 1 -2.0
345 1 1 -2.0
345 1 1 3.999921828
345 1 1 -2.0
346 1 1 -2.0
346 1 1 3.999921828
346 1 1 -2.0
347 1618 1 -2.0
347 1618 1 3.999921828
347 1618 1 -2.0
348 1 1 -2.0
348 1 1 3.999921828
348 1 1 -2.0
349 1 1 -2.0
349 1 1 3.999921828
349 1 1 -2.0
350 1 1 -2.0
350 1 1 3.999921828
350 1 1 -2.0
351 1 1 -2.0
351 1 1 3.999921828
351 1 1 -2.0
352 1 1 -2.0
352 1 1 3.999921828
352 1 1 -2.0
353 1 1 -2.0
353 1 1 3.999921828
353 1 1 -2.0
354 1 1 -2.0
354 1 1 3.999921828
354 1 1 -2.0
355 1 1 -2.0
355 1 1 3.999921828
355 1 1 -2.0
356 1 1 -2.0
356 1 1 3.999921828
356 1 1 -2.0
357 1 1 -2.0
357 1 1 3.999921828
357 1 1 -2.0
358 1 1 -2.0
358 1 1 3.999921828
358 1 1 -2.0
359 1 1 -2.0
359 1 1 3.999921828
359 1 1 -2.0
360 1 1 -2.0
360 1 1 3.999921828
360 1 1 -2.0
361 1 1 -2.0
361 1 1 3.999921828
361 1 1 -2.0
362 1 1 -2.0
362 1 1 3.999921828
362 1 1 -2.0
363 1 1 -2.0
363 1 1 3.999921828
363 1 1 -2.0
364 1 1 -2.0
364 1 1 3.999921828
364 1 1 -2.0
365 1 1 -2.0
365 1 1 3.999921828
365 1 1 -2.0
366 1 1 -2.0
366 1 1 3.999921828
366 1 1 -2.0
367 1 1 -2.0
367 1 1 3.999921828
367 1 1 -2.0
368 1 1 -2.0
368 1 1 3.999921828
368 1 1 -2.0
369 1 1 -2.0
369 1 1 3.999921828
369 1 1 -2.0
370 1 1 -2.0
370 1 1 3.999921828
370 1 1 -2.0
371 1 1 -2.0
371 1 1 3.999921828
371 1 1 -2.0
372 1 1 -2.0
372 1 1 3.999921828
372 1 1 -2.0
373 1 1 -2.0
373 1 1 3.999921828
373 1 1 -2.0
374 1 1 -2.0
374 1 1 3.999921828
374 1 1 -2.0
375 1 1 -2.0
375 1 1 3.999921828
375 1 1 -2.0
376 1 1 -2.0
376 1 1 3.999921828
376 1 1 -2.0
377 1 1 -2.0
377 1 1 3.999921828
377 1 1 -2.0
378 1 1 -2.0
378 1 1 3.999921828
378 1 1 -2.0
379 1 1 -2.0
379 1 1 3.999921828
379 1 1 -2.0
380 1 1 -2.0
380 1 1 3.999921828
380 1 1 -2.0
381 1 1 -2.0
381 1 1 3.999921828
381 1 1 -2.0
382 1 1 -2.0
382 1 1 3.999921828
382 1 1 -2.0
383 1 1 -2.0
383 1 1 3.999921828
383 1 1 -2.0
384 1 1 -2.0
384 1 1 3.999921828
384 1 1 -2.0
385 1 1 -2.0
385 1 1 3.999921828
385 1 1 -2.0
386 1 1 -2.0
386 1 1 3.999921828
386 1 1 -2.0
387 1 1 -2.0
387 1 1 3.999921828
387 1 1 -2.0
388 1 1 -2.0
388 1 1 3.999921828
388 1 1 -2.0
389 1 1 -2.0
389 1 1 3.999921828
389 1 1 -2.0
390 1 1 -2.0
390 1 1 3.999921828
390 1 1 -2.0
391 1 1 -2.0
391 1 1 3.999921828
391 1 1 -2.0
392 1 1 -2.0
392 1 1 3.999921828
392 1 1 -2.0
393 1 1 -2.0
393 1 1 3.999921828
393 1 1 -2.0
394 1 1 -2.0
394 1 1 3.999921828
394 1 1 -2.0
395 1 1 -2.0
395 1 1 3.999921828
395 1 1 -2.0
396 1 1 -2.0
396 1 1 3.999921828
396 1 1 -2.0
397 1 1 -2.0
397 1 1 3.999921828
397 1 1 -2.0
398 1 1 -2.0
398 1 1 3.999921828
398 1 1 -2.0
399 1 1 -2.0
399 1 1 3.999921828
399 1 1 -2.0
400 1 1 -2.0
400 1 1 3.999921828
400 1 1 -2.0
602 # number of linear terms in all constraints
1 1 1.0
1 2 -1.0
1 201 1.0
2 2 1.0
2 3 -1.0
2 202 1.0
3 3 1.0
3 4 -1.0
3 203 1.0
4 4 1.0
4 5 -1.0
4 204 1.0
5 5 1.0
5 6 -1.0
5 205 1.0
6 6 1.0
6 7 -1.0
6 206 1.0
7 7 1.0
7 8 -1.0
7 207 1.0
8 8 1.0
8 9 -1.0
8 208 1.0
9 9 1.0
9 10 -1.0
9 209 1.0
10 10 1.0
10 11 -1.0
10 210 1.0
11 11 1.0
11 12 -1.0
11 211 1.0
12 12 1.0
12 13 -1.0
12 212 1.0
13 13 1.0
13 14 -1.0
13 213 1.0
14 14 1.0
14 15 -1.0
14 214 1.0
15 15 1.0
15 16 -1.0
15 215 1.0
16 16 1.0
16 17 -1.0
16 216 1.0
17 17 1.0
17 18 -1.0
17 217 1.0
18 18 1.0
18 19 -1.0
18 218 1.0
19 19 1.0
19 20 -1.0
19 219 1.0
20 20 1.0
20 21 -1.0
20 220 1.0
21 21 1.0
21 22 -1.0
21 221 1.0
22 22 1.0
22 23 -1.0
22 222 1.0
23 23 1.0
23 24 -1.0
23 223 1.0
24 24 1.0
24 25 -1.0
24 224 1.0
25 25 1.0
25 26 -1.0
25 225 1.0
26 26 1.0
26 27 -1.0
26 226 1.0
27 27 1.0
27 28 -1.0
27 227 1.0
28 28 1.0
28 29 -1.0
28 228 1.0
29 29 1.0
29 30 -1.0
29 229 1.0
30 30 1.0
30 31 -1.0
30 230 1.0
31 31 1.0
31 32 -1.0
31 231 1.0
32 32 1.0
32 33 -1.0
32 232 1.0
33 33 1.0
33 34 -1.0
33 233 1.0
34 34 1.0
34 35 -1.0
34 234 1.0
35 35 1.0
35 36 -1.0
35 235 1.0
36 36 1.0
36 37 -1.0
36 236 1.0
37 37 1.0
37 38 -1.0
37 237 1.0
38 38 1.0
38 39 -1.0
38 238 1.0
39 39 1.0
39 40 -1.0
39 239 1.0
40 40 1.0
40 41 -1.0
40 240 1.0
41 41 1.0
41 42 -1.0
41 241 1.0
42 42 1.0
42 43 -1.0
42 242 1.0
43 43 1.0
43 44 -1.0
43 243 1.0
44 44 1.0
44 45 -1.0
44 244 1.0
45 45 1.0
45 46 -1.0
45 245 1.0
46 46 1.0
46 47 -1.0
46 246 1.0
47 47 1.0
47 48 -1.0
47 247 1.0
48 48 1.0
48 49 -1.0
48 248 1.0
49 49 1.0
49 50 -1.0
49 249 1.0
50 50 1.0
50 51 -1.0
50 250 1.0
51 51 1.0
51 52 -1.0
51 251 1.0
52 52 1.0
52 53 -1.0
52 252 1.0
53 53 1.0
53 54 -1.0
53 253 1.0
54 54 1.0
54 55 -1.0
54 254 1.0
55 55 1.0
55 56 -1.0
55 255 1.0
56 56 1.0
56 57 -1.0
56 256 1.0
57 57 1.0
57 58 -1.0
57 257 1.0
58 58 1.0
58 59 -1.0
58 258 1.0
59 59 1.0
59 60 -1.0
59 259 1.0
60 60 1.0
60 61 -1.0
60 260 1.0
61 61 1.0
61 62 -1.0
61 261 1.0
62 62 1.0
62 63 -1.0
62 262 1.0
63 63 1.0
63 64 -1.0
63 263 1.0
64 64 1.0
64 65 -1.0
64 264 1.0
65 65 1.0
65 66 -1.0
65 265 1.0
66 66 1.0
66 67 -1.0
66 266 1.0
67 67 1.0
67 68 -1.0
67 267 1.0
68 68 1.0
68 69 -1.0
68 268 1.0
69 69 1.0
69 70 -1.0
69 269 1.0
70 70 1.0
70 71 -1.0
70 270 1.0
71 71 1.0
71 72 -1.0
71 271 1.0
72 72 1.0
72 73 -1.0
72 272 1.0
73 73 1.0
73 74 -1.0
73 273 1.0
74 74 1.0
74 75 -1.0
74 274 1.0
75 75 1.0
75 76 -1.0
75 275 1.0
76 76 1.0
76 77 -1.0
76 276 1.0
77 77 1.0
77 78 -1.0
77 277 1.0
78 78 1.0
78 79 -1.0
78 278 1.0
79 79 1.0
79 80 -1.0
79 279 1.0
80 80 1.0
80 81 -1.0
80 280 1.0
81 81 1.0
81 82 -1.0
81 281 1.0
82 82 1.0
82 83 -1.0
82 282 1.0
83 83 1.0
83 84 -1.0
83 283 1.0
84 84 1.0
84 85 -1.0
84 284 1.0
85 85 1.0
85 86 -1.0
85 285 1.0
86 86 1.0
86 87 -1.0
86 286 1.0
87 87 1.0
87 88 -1.0
87 287 1.0
88 88 1.0
88 89 -1.0
88 288 1.0
89 89 1.0
89 90 -1.0
89 289 1.0
90 90 1.0
90 91 -1.0
90 290 1.0
91 91 1.0
91 92 -1.0
91 291 1.0
92 92 1.0
92 93 -1.0
92 292 1.0
93 93 1.0
93 94 -1.0
93 293 1.0
94 94 1.0
94 95 -1.0
94 294 1.0
95 95 1.0
95 96 -1.0
95 295 1.0
96 96 1.0
96 97 -1.0
96 296 1.0
97 97 1.0
97 98 -1.0
97 297 1.0
98 98 1.0
98 99 -1.0
98 298 1.0
99 99 1.0
99 100 -1.0
99 299 1.0
100 100 1.0
100 101 -1.0
100 300 1.0
101 101 1.0
101 102 -1.0
101 301 1.0
102 102 1.0
102 103 -1.0
102 302 1.0
103 103 1.0
103 104 -1.0
103 303 1.0
104 104 1.0
104 105 -1.0
104 304 1.0
105 105 1.0
105 106 -1.0
105 305 1.0
106 106 1.0
106 107 -1.0
106 306 1.0
107 107 1.0
107 108 -1.0
107 307 1.0
108 108 1.0
108 109 -1.0
108 308 1.0
109 109 1.0
109 110 -1.0
109 309 1.0
110 110 1.0
110 111 -1.0
110 310 1.0
111 111 1.0
111 112 -1.0
111 311 1.0
112 112 1.0
112 113 -1.0
112 312 1.0
113 113 1.0
113 114 -1.0
113 313 1.0
114 114 1.0
114 115 -1.0
114 314 1.0
115 115 1.0
115 116 -1.0
115 315 1.0
116 116 1.0
116 117 -1.0
116 316 1.0
117 117 1.0
117 118 -1.0
117 317 1.0
118 118 1.0
118 119 -1.0
118 318 1.0
119 119 1.0
119 120 -1.0
119 319 1.0
120 120 1.0
120 121 -1.0
120 320 1.0
121 121 1.0
121 122 -1.0
121 321 1.0
122 122 1.0
122 123 -1.0
122 322 1.0
123 123 1.0
123 124 -1.0
123 323 1.0
124 124 1.0
124 125 -1.0
124 324 1.0
125 125 1.0
125 126 -1.0
125 325 1.0
126 126 1.0
126 127 -1.0
126 326 1.0
127 127 1.0
127 128 -1.0
127 327 1.0
128 128 1.0
128 129 -1.0
128 328 1.0
129 129 1.0
129 130 -1.0
129 329 1.0
130 130 1.0
130 131 -1.0
130 330 1.0
131 131 1.0
131 132 -1.0
131 331 1.0
132 132 1.0
132 133 -1.0
132 332 1.0
133 133 1.0
133 134 -1.0
133 333 1.0
134 134 1.0
134 135 -1.0
134 334 1.0
135 135 1.0
135 136 -1.0
135 335 1.0
136 136 1.0
136 137 -1.0
136 336 1.0
137 137 1.0
137 138 -1.0
137 337 1.0
138 138 1.0
138 139 -1.0
138 338 1.0
139 139 1.0
139 140 -1.0
139 339 1.0
140 140 1.0
140 141 -1.0
140 340 1.0
141 141 1.0
141 142 -1.0
141 341 1.0
142 142 1.0
142 143 -1.0
142 342 1.0
143 143 1.0
143 144 -1.0
143 343 1.0
144 144 1.0
144 145 -1.0
144 344 1.0
145 145 1.0
145 146 -1.0
145 345 1.0
146 146 1.0
146 147 -1.0
146 346 1.0
147 147 1.0
147 148 -1.0
147 347 1.0
148 148 1.0
148 149 -1.0
148 348 1.0
149 149 1.0
149 150 -1.0
149 349 1.0
150 150 1.0
150 151 -1.0
150 350 1.0
151 151 1.0
151 152 -1.0
151 351 1.0
152 152 1.0
152 153 -1.0
152 352 1.0
153 153 1.0
153 154 -1.0
153 353 1.0
154 154 1.0
154 155 -1.0
154 354 1.0
155 155 1.0
155 156 -1.0
155 355 1.0
156 156 1.0
156 157 -1.0
156 356 1.0
157 157 1.0
157 158 -1.0
157 357 1.0
158 158 1.0
158 159 -1.0
158 358 1.0
159 159 1.0
159 160 -1.0
159 359 1.0
160 160 1.0
160 161 -1.0
160 360 1.0
161 161 1.0
161 162 -1.0
161 361 1.0
162 162 1.0
162 163 -1.0
162 362 1.0
163 163 1.0
163 164 -1.0
163 363 1.0
164 164 1.0
164 165 -1.0
164 364 1.0
165 165 1.0
165 166 -1.0
165 365 1.0
166 166 1.0
166 167 -1.0
166 366 1.0
167 167 1.0
167 168 -1.0
167 367 1.0
168 168 1.0
168 169 -1.0
168 368 1.0
169 169 1.0
169 170 -1.0
169 369 1.0
170 170 1.0
170 171 -1.0
170 370 1.0
171 171 1.0
171 172 -1.0
171 371 1.0
172 172 1.0
172 173 -1.0
172 372 1.0
173 173 1.0
173 174 -1.0
173 373 1.0
174 174 1.0
174 175 -1.0
174 374 1.0
175 175 1.0
175 176 -1.0
175 375 1.0
176 176 1.0
176 177 -1.0
176 376 1.0
177 177 1.0
177 178 -1.0
177 377 1.0
178 178 1.0
178 179 -1.0
178 378 1.0
179 179 1.0
179 180 -1.0
179 379 1.0
180 180 1.0
180 181 -1.0
180 380 1.0
181 181 1.0
181 182 -1.0
181 381 1.0
182 182 1.0
182 183 -1.0
182 382 1.0
183 183 1.0
183 184 -1.0
183 383 1.0
184 184 1.0
184 185 -1.0
184 384 1.0
185 185 1.0
185 186 -1.0
185 385 1.0
186 186 1.0
186 187 -1.0
186 386 1.0
187 187 1.0
187 188 -1.0
187 387 1.0
188 188 1.0
188 189 -1.0
188 388 1.0
189 189 1.0
189 190 -1.0
189 389 1.0
190 190 1.0
190 191 -1.0
190 390 1.0
191 191 1.0
191 192 -1.0
191 391 1.0
192 192 1.0
192 193 -1.0
192 392 1.0
193 193 1.0
193 194 -1.0
193 393 1.0
194 194 1.0
194 195 -1.0
194 394 1.0
195 195 1.0
195 196 -1.0
195 395 1.0
196 196 1.0
196 197 -1.0
196 396 1.0
197 197 1.0
197 198 -1.0
197 397 1.0
198 198 1.0
198 199 -1.0
198 398 1.0
199 199 1.0
199 200 -1.0
199 399 1.0
200 1 -1.0
200 2 1.999960914
201 199 3.999921827
201 200 -2.0
202 200 -4.0
1.79769313486232E+308 # value for infinity
-1.79769313486232E+308 # default left-hand-side value
199 # number of non-default left-hand-sides
1 0.0
2 0.0
3 0.0
4 0.0
5 0.0
6 0.0
7 0.0
8 0.0
9 0.0
10 0.0
11 0.0
12 0.0
13 0.0
14 0.0
15 0.0
16 0.0
17 0.0
18 0.0
19 0.0
20 0.0
21 0.0
22 0.0
23 0.0
24 0.0
25 0.0
26 0.0
27 0.0
28 0.0
29 0.0
30 0.0
31 0.0
32 0.0
33 0.0
34 0.0
35 0.0
36 0.0
37 0.0
38 0.0
39 0.0
40 0.0
41 0.0
42 0.0
43 0.0
44 0.0
45 0.0
46 0.0
47 0.0
48 0.0
49 0.0
50 0.0
51 0.0
52 0.0
53 0.0
54 0.0
55 0.0
56 0.0
57 0.0
58 0.0
59 0.0
60 0.0
61 0.0
62 0.0
63 0.0
64 0.0
65 0.0
66 0.0
67 0.0
68 0.0
69 0.0
70 0.0
71 0.0
72 0.0
73 0.0
74 0.0
75 0.0
76 0.0
77 0.0
78 0.0
79 0.0
80 0.0
81 0.0
82 0.0
83 0.0
84 0.0
85 0.0
86 0.0
87 0.0
88 0.0
89 0.0
90 0.0
91 0.0
92 0.0
93 0.0
94 0.0
95 0.0
96 0.0
97 0.0
98 0.0
99 0.0
100 0.0
101 0.0
102 0.0
103 0.0
104 0.0
105 0.0
106 0.0
107 0.0
108 0.0
109 0.0
110 0.0
111 0.0
112 0.0
113 0.0
114 0.0
115 0.0
116 0.0
117 0.0
118 0.0
119 0.0
120 0.0
121 0.0
122 0.0
123 0.0
124 0.0
125 0.0
126 0.0
127 0.0
128 0.0
129 0.0
130 0.0
131 0.0
132 0.0
133 0.0
134 0.0
135 0.0
136 0.0
137 0.0
138 0.0
139 0.0
140 0.0
141 0.0
142 0.0
143 0.0
144 0.0
145 0.0
146 0.0
147 0.0
148 0.0
149 0.0
150 0.0
151 0.0
152 0.0
153 0.0
154 0.0
155 0.0
156 0.0
157 0.0
158 0.0
159 0.0
160 0.0
161 0.0
162 0.0
163 0.0
164 0.0
165 0.0
166 0.0
167 0.0
168 0.0
169 0.0
170 0.0
171 0.0
172 0.0
173 0.0
174 0.0
175 0.0
176 0.0
177 0.0
178 0.0
179 0.0
180 0.0
181 0.0
182 0.0
183 0.0
184 0.0
185 0.0
186 0.0
187 0.0
188 0.0
189 0.0
190 0.0
191 0.0
192 0.0
193 0.0
194 0.0
195 0.0
196 0.0
197 0.0
198 0.0
199 0.0
0.0 # default right-hand-side value
0 # number of non-default right-hand-sides
1.0 # default variable lower bound value
200 # number of non-default variable lower bounds
200 1.990622111
201 -1.79769313486232E+308
202 -0.009377888518
203 -0.009377888518
204 -0.009377888518
205 -0.009377888518
206 -0.009377888518
207 -0.009377888518
208 -0.009377888518
209 -0.009377888518
210 -0.009377888518
211 -0.009377888518
212 -0.009377888518
213 -0.009377888518
214 -0.009377888518
215 -0.009377888518
216 -0.009377888518
217 -0.009377888518
218 -0.009377888518
219 -0.009377888518
220 -0.009377888518
221 -0.009377888518
222 -0.009377888518
223 -0.009377888518
224 -0.009377888518
225 -0.009377888518
226 -0.009377888518
227 -0.009377888518
228 -0.009377888518
229 -0.009377888518
230 -0.009377888518
231 -0.009377888518
232 -0.009377888518
233 -0.009377888518
234 -0.009377888518
235 -0.009377888518
236 -0.009377888518
237 -0.009377888518
238 -0.009377888518
239 -0.009377888518
240 -0.009377888518
241 -0.009377888518
242 -0.009377888518
243 -0.009377888518
244 -0.009377888518
245 -0.009377888518
246 -0.009377888518
247 -0.009377888518
248 -0.009377888518
249 -0.009377888518
250 -0.009377888518
251 -0.009377888518
252 -0.009377888518
253 -0.009377888518
254 -0.009377888518
255 -0.009377888518
256 -0.009377888518
257 -0.009377888518
258 -0.009377888518
259 -0.009377888518
260 -0.009377888518
261 -0.009377888518
262 -0.009377888518
263 -0.009377888518
264 -0.009377888518
265 -0.009377888518
266 -0.009377888518
267 -0.009377888518
268 -0.009377888518
269 -0.009377888518
270 -0.009377888518
271 -0.009377888518
272 -0.009377888518
273 -0.009377888518
274 -0.009377888518
275 -0.009377888518
276 -0.009377888518
277 -0.009377888518
278 -0.009377888518
279 -0.009377888518
280 -0.009377888518
281 -0.009377888518
282 -0.009377888518
283 -0.009377888518
284 -0.009377888518
285 -0.009377888518
286 -0.009377888518
287 -0.009377888518
288 -0.009377888518
289 -0.009377888518
290 -0.009377888518
291 -0.009377888518
292 -0.009377888518
293 -0.009377888518
294 -0.009377888518
295 -0.009377888518
296 -0.009377888518
297 -0.009377888518
298 -0.009377888518
299 -0.009377888518
300 -0.009377888518
301 -0.009377888518
302 -0.009377888518
303 -0.009377888518
304 -0.009377888518
305 -0.009377888518
306 -0.009377888518
307 -0.009377888518
308 -0.009377888518
309 -0.009377888518
310 -0.009377888518
311 -0.009377888518
312 -0.009377888518
313 -0.009377888518
314 -0.009377888518
315 -0.009377888518
316 -0.009377888518
317 -0.009377888518
318 -0.009377888518
319 -0.009377888518
320 -0.009377888518
321 -0.009377888518
322 -0.009377888518
323 -0.009377888518
324 -0.009377888518
325 -0.009377888518
326 -0.009377888518
327 -0.009377888518
328 -0.009377888518
329 -0.009377888518
330 -0.009377888518
331 -0.009377888518
332 -0.009377888518
333 -0.009377888518
334 -0.009377888518
335 -0.009377888518
336 -0.009377888518
337 -0.009377888518
338 -0.009377888518
339 -0.009377888518
340 -0.009377888518
341 -0.009377888518
342 -0.009377888518
343 -0.009377888518
344 -0.009377888518
345 -0.009377888518
346 -0.009377888518
347 -0.009377888518
348 -0.009377888518
349 -0.009377888518
350 -0.009377888518
351 -0.009377888518
352 -0.009377888518
353 -0.009377888518
354 -0.009377888518
355 -0.009377888518
356 -0.009377888518
357 -0.009377888518
358 -0.009377888518
359 -0.009377888518
360 -0.009377888518
361 -0.009377888518
362 -0.009377888518
363 -0.009377888518
364 -0.009377888518
365 -0.009377888518
366 -0.009377888518
367 -0.009377888518
368 -0.009377888518
369 -0.009377888518
370 -0.009377888518
371 -0.009377888518
372 -0.009377888518
373 -0.009377888518
374 -0.009377888518
375 -0.009377888518
376 -0.009377888518
377 -0.009377888518
378 -0.009377888518
379 -0.009377888518
380 -0.009377888518
381 -0.009377888518
382 -0.009377888518
383 -0.009377888518
384 -0.009377888518
385 -0.009377888518
386 -0.009377888518
387 -0.009377888518
388 -0.009377888518
389 -0.009377888518
390 -0.009377888518
391 -0.009377888518
392 -0.009377888518
393 -0.009377888518
394 -0.009377888518
395 -0.009377888518
396 -0.009377888518
397 -0.009377888518
398 -0.009377888518
399 -0.009377888518
2.0 # default variable upper bound value
200 # number of non-default variable upper bounds
1 1.000039088
201 1.79769313486232E+308
202 0.009377888518
203 0.009377888518
204 0.009377888518
205 0.009377888518
206 0.009377888518
207 0.009377888518
208 0.009377888518
209 0.009377888518
210 0.009377888518
211 0.009377888518
212 0.009377888518
213 0.009377888518
214 0.009377888518
215 0.009377888518
216 0.009377888518
217 0.009377888518
218 0.009377888518
219 0.009377888518
220 0.009377888518
221 0.009377888518
222 0.009377888518
223 0.009377888518
224 0.009377888518
225 0.009377888518
226 0.009377888518
227 0.009377888518
228 0.009377888518
229 0.009377888518
230 0.009377888518
231 0.009377888518
232 0.009377888518
233 0.009377888518
234 0.009377888518
235 0.009377888518
236 0.009377888518
237 0.009377888518
238 0.009377888518
239 0.009377888518
240 0.009377888518
241 0.009377888518
242 0.009377888518
243 0.009377888518
244 0.009377888518
245 0.009377888518
246 0.009377888518
247 0.009377888518
248 0.009377888518
249 0.009377888518
250 0.009377888518
251 0.009377888518
252 0.009377888518
253 0.009377888518
254 0.009377888518
255 0.009377888518
256 0.009377888518
257 0.009377888518
258 0.009377888518
259 0.009377888518
260 0.009377888518
261 0.009377888518
262 0.009377888518
263 0.009377888518
264 0.009377888518
265 0.009377888518
266 0.009377888518
267 0.009377888518
268 0.009377888518
269 0.009377888518
270 0.009377888518
271 0.009377888518
272 0.009377888518
273 0.009377888518
274 0.009377888518
275 0.009377888518
276 0.009377888518
277 0.009377888518
278 0.009377888518
279 0.009377888518
280 0.009377888518
281 0.009377888518
282 0.009377888518
283 0.009377888518
284 0.009377888518
285 0.009377888518
286 0.009377888518
287 0.009377888518
288 0.009377888518
289 0.009377888518
290 0.009377888518
291 0.009377888518
292 0.009377888518
293 0.009377888518
294 0.009377888518
295 0.009377888518
296 0.009377888518
297 0.009377888518
298 0.009377888518
299 0.009377888518
300 0.009377888518
301 0.009377888518
302 0.009377888518
303 0.009377888518
304 0.009377888518
305 0.009377888518
306 0.009377888518
307 0.009377888518
308 0.009377888518
309 0.009377888518
310 0.009377888518
311 0.009377888518
312 0.009377888518
313 0.009377888518
314 0.009377888518
315 0.009377888518
316 0.009377888518
317 0.009377888518
318 0.009377888518
319 0.009377888518
320 0.009377888518
321 0.009377888518
322 0.009377888518
323 0.009377888518
324 0.009377888518
325 0.009377888518
326 0.009377888518
327 0.009377888518
328 0.009377888518
329 0.009377888518
330 0.009377888518
331 0.009377888518
332 0.009377888518
333 0.009377888518
334 0.009377888518
335 0.009377888518
336 0.009377888518
337 0.009377888518
338 0.009377888518
339 0.009377888518
340 0.009377888518
341 0.009377888518
342 0.009377888518
343 0.009377888518
344 0.009377888518
345 0.009377888518
346 0.009377888518
347 0.009377888518
348 0.009377888518
349 0.009377888518
350 0.009377888518
351 0.009377888518
352 0.009377888518
353 0.009377888518
354 0.009377888518
355 0.009377888518
356 0.009377888518
357 0.009377888518
358 0.009377888518
359 0.009377888518
360 0.009377888518
361 0.009377888518
362 0.009377888518
363 0.009377888518
364 0.009377888518
365 0.009377888518
366 0.009377888518
367 0.009377888518
368 0.009377888518
369 0.009377888518
370 0.009377888518
371 0.009377888518
372 0.009377888518
373 0.009377888518
374 0.009377888518
375 0.009377888518
376 0.009377888518
377 0.009377888518
378 0.009377888518
379 0.009377888518
380 0.009377888518
381 0.009377888518
382 0.009377888518
383 0.009377888518
384 0.009377888518
385 0.009377888518
386 0.009377888518
387 0.009377888518
388 0.009377888518
389 0.009377888518
390 0.009377888518
391 0.009377888518
392 0.009377888518
393 0.009377888518
394 0.009377888518
395 0.009377888518
396 0.009377888518
397 0.009377888518
398 0.009377888518
399 0.009377888518
0.0 # default variable primal value in starting point
200 # number of non-default variable primal values in starting point
1 1.0
2 1.0
3 1.0
4 1.0
5 1.0
6 1.0
7 1.0
8 1.0
9 1.0
10 1.0
11 1.0
12 1.0
13 1.0
14 1.0
15 1.0
16 1.0
17 1.0
18 1.0
19 1.0
20 1.0
21 1.0
22 1.0
23 1.0
24 1.0
25 1.0
26 1.0
27 1.0
28 1.0
29 1.0
30 1.0
31 1.0
32 1.0
33 1.0
34 1.0
35 1.0
36 1.0
37 1.0
38 1.0
39 1.0
40 1.0
41 1.0
42 1.0
43 1.0
44 1.0
45 1.0
46 1.0
47 1.0
48 1.0
49 1.0
50 1.0
51 1.0
52 1.0
53 1.0
54 1.0
55 1.0
56 1.0
57 1.0
58 1.0
59 1.0
60 1.0
61 1.0
62 1.0
63 1.0
64 1.0
65 1.0
66 1.0
67 1.0
68 1.0
69 1.0
70 1.0
71 1.0
72 1.0
73 1.0
74 1.0
75 1.0
76 1.0
77 1.0
78 1.0
79 1.0
80 1.0
81 1.0
82 1.0
83 1.0
84 1.0
85 1.0
86 1.0
87 1.0
88 1.0
89 1.0
90 1.0
91 1.0
92 1.0
93 1.0
94 1.0
95 1.0
96 1.0
97 1.0
98 1.0
99 1.0
100 1.0
101 1.0
102 1.0
103 1.0
104 1.0
105 1.0
106 1.0
107 1.0
108 1.0
109 1.0
110 1.0
111 1.0
112 1.0
113 1.0
114 1.0
115 1.0
116 1.0
117 1.0
118 1.0
119 1.0
120 1.0
121 1.0
122 1.0
123 1.0
124 1.0
125 1.0
126 1.0
127 1.0
128 1.0
129 1.0
130 1.0
131 1.0
132 1.0
133 1.0
134 1.0
135 1.0
136 1.0
137 1.0
138 1.0
139 1.0
140 1.0
141 1.0
142 1.0
143 1.0
144 1.0
145 1.0
146 1.0
147 1.0
148 1.0
149 1.0
150 1.0
151 1.0
152 1.0
153 1.0
154 1.0
155 1.0
156 1.0
157 1.0
158 1.0
159 1.0
160 1.0
161 1.0
162 1.0
163 1.0
164 1.0
165 1.0
166 1.0
167 1.0
168 1.0
169 1.0
170 1.0
171 1.0
172 1.0
173 1.0
174 1.0
175 1.0
176 1.0
177 1.0
178 1.0
179 1.0
180 1.0
181 1.0
182 1.0
183 1.0
184 1.0
185 1.0
186 1.0
187 1.0
188 1.0
189 1.0
190 1.0
191 1.0
192 1.0
193 1.0
194 1.0
195 1.0
196 1.0
197 1.0
198 1.0
199 1.0
200 1.990622111
0.0 # default constraint dual value in starting point
0 # number of non-default constraint dual values in starting point
0.0 # default variable bound dual value in starting point
0 # number of non-default variable bound dual values in starting point
0 # number of non-default variable names
0 # number of non-default constraint names
